decision_x1=[0,2];
decision_x2=[0,2];
decision_x3=[0,2];
decision_x4=[0,2];
decision_x5=[0,2];
decision_x6=[0,2];
random_y1=[0,2];
random_y2=[0,2];
constraint_x2_x1=[
0,0,2.9|
0,1,4.4|
0,2,1.7|
1,0,5.6|
1,1,3.7|
1,2,2.5|
2,0,4.9|
2,1,8.2|
2,2,9.5|
];
constraint_x3_x1=[
0,0,4.2|
0,1,9.7|
0,2,0.044|
1,0,0.64|
1,1,3.2|
1,2,6.7|
2,0,2.6|
2,1,1.7|
2,2,3.7|
];
constraint_x4_x2=[
0,0,5.4|
0,1,5.2|
0,2,4.8|
1,0,6.4|
1,1,3.8|
1,2,1.9|
2,0,4.5|
2,1,2.1|
2,2,5.6|
];
constraint_x4_x3=[
0,0,9.4|
0,1,3.2|
0,2,4.2|
1,0,5.8|
1,1,7.1|
1,2,5.4|
2,0,3.8|
2,1,4.6|
2,2,0.11|
];
constraint_x5_x2=[
0,0,7.9|
0,1,5.8|
0,2,9.9|
1,0,2.1|
1,1,7.8|
1,2,9.8|
2,0,5.2|
2,1,3.1|
2,2,2.8|
];
constraint_x6_x1=[
0,0,6.1|
0,1,7.5|
0,2,2.9|
1,0,9.2|
1,1,6.7|
1,2,5.3|
2,0,7.9|
2,1,6.3|
2,2,1.2|
];
constraint_x6_x2=[
0,0,4.9|
0,1,7.9|
0,2,2.7|
1,0,4.1|
1,1,5.4|
1,2,7.5|
2,0,8.4|
2,1,9.4|
2,2,2.9|
];
constraint_x6_x3=[
0,0,3.8|
0,1,6.9|
0,2,9.9|
1,0,0.49|
1,1,5.7|
1,2,2.5|
2,0,6.2|
2,1,1.5|
2,2,2.8|
];
constraint_x1_y1=[
0,0,7.7|
0,1,1.7|
0,2,8|
1,0,8|
1,1,4.2|
1,2,1.2|
2,0,3.1|
2,1,5.6|
2,2,2.4|
];
constraint_x2_y2=[
0,0,7.8|
0,1,0.022|
0,2,4.1|
1,0,2.9|
1,1,4.4|
1,2,6.6|
2,0,4|
2,1,8.8|
2,2,9.9|
];
initial_distribution_y1=[0.45,0.26,0.29];
initial_distribution_y2=[0.39,0.4,0.22];
transition_y1=[
0.039,0.5,0.46|
0.39,0.31,0.3|
0.15,0.57,0.28|
];
transition_y2=[
0.12,0.86,0.022|
0.55,0.2,0.25|
0.44,0.5,0.056|
];
